PROBLEM NAME: eil51_n19
KNAPSACK DATA TYPE: multiple strongly correlated
DIMENSION: 19
NUMBER OF ITEMS: 18
CAPACITY OF KNAPSACK: 992
MIN SPEED: 0.1
MAX SPEED: 1
RENTING RATIO: 2.15
EDGE_WEIGHT_TYPE: CEIL_2D
NODE_COORD_SECTION	(INDEX, X, Y):
1	37	52
2	49	49
3	52	64
4	52	33
5	51	21
6	36	16
7	52	41
8	27	23
9	16	57
10	7	38
11	43	67
12	58	48
13	37	69
14	62	63
15	32	22
16	45	35
17	10	17
18	5	64
19	30	15
ITEMS SECTION	(INDEX, PROFIT, WEIGHT, ASSIGNED NODE NUMBER):
1	1192	992	13
2	1015	815	11
3	991	791	3
4	966	766	14
5	867	667	12
6	849	649	2
7	798	598	7
8	744	544	16
9	706	506	4
10	657	457	5
11	646	446	6
12	622	422	19
13	616	416	15
14	559	359	8
15	534	334	17
16	437	237	10
17	294	94	18
18	207	7	9
